
******************************************************************************
This program contains Ipopt, a library for large-scale nonlinear optimization.
 Ipopt is released as open source code under the Eclipse Public License (EPL).
         For more information visit http://projects.coin-or.org/Ipopt
******************************************************************************

This is Ipopt version 3.12.6, running with linear solver ma57.

Number of nonzeros in equality constraint Jacobian...:        0
Number of nonzeros in inequality constraint Jacobian.:        0
Number of nonzeros in Lagrangian Hessian.............:    34979

Total number of variables............................:     5000
                     variables with only lower bounds:        0
                variables with lower and upper bounds:        0
                     variables with only upper bounds:        0
Total number of equality constraints.................:        0
Total number of inequality constraints...............:        0
        inequality constraints with only lower bounds:        0
   inequality constraints with lower and upper bounds:        0
        inequality constraints with only upper bounds:        0

iter    objective    inf_pr   inf_du lg(mu)  ||d||  lg(rg) alpha_du alpha_pr  ls
   0  1.2490400e+05 0.00e+00 1.00e+02  -1.0 0.00e+00    -  0.00e+00 0.00e+00   0
   1  1.2255470e+05 0.00e+00 6.03e+01  -1.0 7.86e-07   8.0 1.00e+00 1.00e+00f  1
   2  1.1889813e+05 0.00e+00 3.43e+01  -1.0 8.76e-07   7.5 1.00e+00 1.00e+00f  1
   3  1.1427826e+05 0.00e+00 1.80e+01  -1.0 1.44e-06   7.0 1.00e+00 1.00e+00f  1
   4  4.0093514e+04 0.00e+00 1.40e+03  -1.0 2.64e-01    -  1.00e+00 1.00e+00f  1
   5  3.2054994e+04 0.00e+00 1.30e+04  -1.0 2.59e-01    -  1.00e+00 5.00e-01f  2
   6  9.3113182e+03 0.00e+00 5.16e+03  -1.0 2.68e-01    -  1.00e+00 1.00e+00f  1
   7  4.7734809e+03 0.00e+00 3.20e+04  -1.0 3.10e-01    -  1.00e+00 1.00e+00f  1
   8  3.6974481e+02 0.00e+00 3.07e+03  -1.0 2.22e-01    -  1.00e+00 1.00e+00f  1
   9  3.0941776e+02 0.00e+00 2.86e+02  -1.0 1.31e-06   6.6 1.00e+00 1.00e+00f  1
iter    objective    inf_pr   inf_du lg(mu)  ||d||  lg(rg) alpha_du alpha_pr  ls
  10  7.9886500e+00 0.00e+00 4.97e+00  -1.0 5.00e-02    -  1.00e+00 1.00e+00f  1
  11  8.0468211e-03 0.00e+00 2.54e-02  -1.0 1.01e-02    -  1.00e+00 1.00e+00f  1
  12  9.0248182e-09 0.00e+00 4.41e-07  -3.8 3.35e-04    -  1.00e+00 1.00e+00f  1
  13  1.1735362e-20 0.00e+00 6.75e-11  -8.6 3.59e-07    -  1.00e+00 1.00e+00f  1
  14  1.1723524e-20 0.00e+00 7.61e-11 -10.3 3.01e-19   6.1 1.00e+00 1.00e+00   0
  15  1.1689348e-20 0.00e+00 6.77e-11 -10.3 8.80e-19   5.6 1.00e+00 1.00e+00T  0

Number of Iterations....: 15

                                   (scaled)                 (unscaled)
Objective...............:   5.9011842003147852e-26    1.1689347537193215e-20
Dual infeasibility......:   6.7724505520421777e-11    1.3415193543196663e-05
Constraint violation....:   0.0000000000000000e+00    0.0000000000000000e+00
Complementarity.........:   0.0000000000000000e+00    0.0000000000000000e+00
Overall NLP error.......:   6.7724505520421777e-11    1.3415193543196663e-05


Number of objective function evaluations             = 21
Number of objective gradient evaluations             = 16
Number of equality constraint evaluations            = 0
Number of inequality constraint evaluations          = 0
Number of equality constraint Jacobian evaluations   = 0
Number of inequality constraint Jacobian evaluations = 0
Number of Lagrangian Hessian evaluations             = 16
Total CPU secs in IPOPT (w/o function evaluations)   =      0.053
Total CPU secs in NLP function evaluations           =      0.090

EXIT: Search Direction is becoming Too Small.

 ** SUBROUTINE CUTEST_csetup: Warning. The problem has no general constraints. 
 ** Other tools may be preferable ** 

************************ CUTEst statistics ************************


 Package used            :  IPOPT
 Problem                 :  SBRYBND   
 # variables             =            5000
 # constraints           =               0
 # objective functions   =        0.3800000E+02
 # objective gradients   =        0.1700000E+02
 # objective Hessians    =        0.1700000E+02
 # Hessian-vector prdct  =        0.0000000E+00
 # constraints functions =        0.0000000E+00
 # constraints gradients =        0.0000000E+00
 # constraints Hessians  =        0.0000000E+00
 Exit code               =               3
 Final f                 =   0.1168935E-19
 Set up time             =            0.23 seconds
 Solve time              =            0.19 seconds


******************************************************************

System Time =       0.1430000067 s.
